JulietBench/Juliet_Based_Patch_Bench/linux/CWE-189-Numeric-Errors/CVE_2012_2384_44afb3a04391a74309d16180d1e4f8386fdfa745/Resulti915_gem_do_execbuffer_Snippet_patch1EQ.smt2
; benchmark generated from python API
(set-info :status unknown)
(declare-fun R () (_ BitVec 32))
(declare-fun rdi () (_ BitVec 64))
(assert
 (let (($x67 (= (_ bv0 32) R)))
 (let ((?x6 ((_ extract 31 0) rdi)))
 (let (($x10 (= (_ bv0 32) ?x6)))
 (let (($x61 (and $x10 $x67)))
 (let ((?x49 (bvmul (_ bv8 32) ?x6)))
 (let (($x66 (= R ?x49)))
 (let (($x36 (and (distinct (_ bv0 32) ?x6) true)))
 (let ((?x69 (bvashr ?x49 (_ bv32 32))))
 (let (($x141 (= (_ bv0 32) ?x69)))
 (let (($x58 (and $x141 $x36 $x66)))
 (let (($x60 (= (_ bv4294967274 32) R)))
 (let (($x70 (and (distinct (_ bv0 32) ?x69) true)))
 (let (($x57 (and $x70 $x36 $x60)))
 (let (($x51 (or $x57 $x58 $x61)))
 (let (($x47 (and $x36 $x66)))
 (let (($x62 (or $x47 $x61)))
 (and $x62 $x51))))))))))))))))))
(check-sat)
